words_easy_train/words_111_UNSAT.qaiger
aag 114 24 0 1 90
16
28
10
30
12
6
26
48
38
42
40
8
24
44
46
34
36
32
4
20
14
22
18
2
228
50 28 12
52 26 10
54 24 8
56 22 6
58 20 4
60 18 2
62 21 5
64 63 59
66 64 60
68 67 59
70 23 7
72 71 57
74 72 69
76 75 57
78 25 9
80 79 55
82 80 77
84 83 55
86 27 11
88 87 53
90 88 85
92 91 53
94 29 13
96 95 51
98 96 93
100 99 51
102 30 14
104 31 15
106 105 103
108 106 101
110 107 100
112 111 109
114 89 84
116 115 91
118 43 41
120 118 45
122 120 47
124 123 49
126 122 48
128 127 125
130 129 116
132 128 117
134 81 76
136 135 83
138 121 46
140 139 123
142 140 136
144 141 137
146 65 61
148 42 40
150 149 119
152 150 147
154 65 42
156 19 3
158 157 40
160 158 61
162 160 155
164 163 153
166 165 67
168 73 68
170 169 75
172 171 167
174 170 166
176 119 44
178 177 121
180 179 175
182 181 173
184 182 145
186 185 143
188 187 133
190 189 131
192 97 92
194 193 99
196 195 124
198 196 190
200 199 113
202 194 125
204 202 191
206 205 112
208 207 201
210 109 103
212 33 16
214 32 17
216 215 213
218 217 210
220 216 211
222 221 219
224 223 208
226 222 209
228 227 225
i0 1 x1[7]
i1 1 x2[5]
i2 1 x1[4]
i3 1 x2[6]
i4 1 x1[5]
i5 1 x1[2]
i6 1 x2[4]
i7 2 y2[7]
i8 2 y2[2]
i9 2 y2[4]
i10 2 y2[3]
i11 1 x1[3]
i12 1 x2[3]
i13 2 y2[5]
i14 2 y2[6]
i15 2 y2[0]
i16 2 y2[1]
i17 1 x2[7]
i18 1 x1[1]
i19 1 x2[1]
i20 1 x1[6]
i21 1 x2[2]
i22 1 x2[0]
i23 1 x1[0]
o0 bv[0]
c
simplified
  <
    add
      1 x1
      1 x2
    >> 3
      2 y2
