words_easy_train/words_111_UNSAT.qaiger.qdimacs
p cnf 114 271
a 1 2 3 4 5 6 7 8 9 10 11 12 13 14 15 16 0
e 17 18 19 20 21 22 23 24 25 26 27 28 29 30 31 32 33 34 35 36 37 38 39 40 41 42 43 44 45 46 47 48 49 50 51 52 53 54 55 56 57 58 59 60 61 62 63 64 65 66 67 68 69 70 71 72 73 74 75 76 77 78 79 80 81 82 83 84 85 86 87 88 89 90 91 92 93 94 95 96 97 98 99 100 101 102 103 104 105 106 107 108 109 110 111 112 113 114 0
-14 -6 25 0
14 -25 0
6 -25 0
-13 -5 26 0
13 -26 0
5 -26 0
-12 -4 27 0
12 -27 0
4 -27 0
-11 -3 28 0
11 -28 0
3 -28 0
-10 -2 29 0
10 -29 0
2 -29 0
-9 -1 30 0
9 -30 0
1 -30 0
10 2 31 0
-10 -31 0
-2 -31 0
31 29 32 0
-31 -32 0
-29 -32 0
-32 -30 33 0
32 -33 0
30 -33 0
33 29 34 0
-33 -34 0
-29 -34 0
11 3 35 0
-11 -35 0
-3 -35 0
35 28 36 0
-35 -36 0
-28 -36 0
-36 34 37 0
36 -37 0
-34 -37 0
37 28 38 0
-37 -38 0
-28 -38 0
12 4 39 0
-12 -39 0
-4 -39 0
39 27 40 0
-39 -40 0
-27 -40 0
-40 38 41 0
40 -41 0
-38 -41 0
41 27 42 0
-41 -42 0
-27 -42 0
13 5 43 0
-13 -43 0
-5 -43 0
43 26 44 0
-43 -44 0
-26 -44 0
-44 42 45 0
44 -45 0
-42 -45 0
45 26 46 0
-45 -46 0
-26 -46 0
14 6 47 0
-14 -47 0
-6 -47 0
47 25 48 0
-47 -48 0
-25 -48 0
-48 46 49 0
48 -49 0
-46 -49 0
49 25 50 0
-49 -50 0
-25 -50 0
-15 -7 51 0
15 -51 0
7 -51 0
15 7 52 0
-15 -52 0
-7 -52 0
52 51 53 0
-52 -53 0
-51 -53 0
-53 50 54 0
53 -54 0
-50 -54 0
53 -50 55 0
-53 -55 0
50 -55 0
55 54 56 0
-55 -56 0
-54 -56 0
44 -42 57 0
-44 -57 0
42 -57 0
57 45 58 0
-57 -58 0
-45 -58 0
21 20 59 0
-21 -59 0
-20 -59 0
-59 22 60 0
59 -60 0
-22 -60 0
-60 23 61 0
60 -61 0
-23 -61 0
61 24 62 0
-61 -62 0
-24 -62 0
-61 -24 63 0
61 -63 0
24 -63 0
63 62 64 0
-63 -64 0
-62 -64 0
64 -58 65 0
-64 -65 0
58 -65 0
-64 58 66 0
64 -66 0
-58 -66 0
40 -38 67 0
-40 -67 0
38 -67 0
67 41 68 0
-67 -68 0
-41 -68 0
60 -23 69 0
-60 -69 0
23 -69 0
69 61 70 0
-69 -70 0
-61 -70 0
-70 -68 71 0
70 -71 0
68 -71 0
70 68 72 0
-70 -72 0
-68 -72 0
32 30 73 0
-32 -73 0
-30 -73 0
-21 -20 74 0
21 -74 0
20 -74 0
74 59 75 0
-74 -75 0
-59 -75 0
-75 73 76 0
75 -76 0
-73 -76 0
32 -21 77 0
-32 -77 0
21 -77 0
9 1 78 0
-9 -78 0
-1 -78 0
78 -20 79 0
-78 -79 0
20 -79 0
-79 30 80 0
79 -80 0
-30 -80 0
-80 77 81 0
80 -81 0
-77 -81 0
81 76 82 0
-81 -82 0
-76 -82 0
82 33 83 0
-82 -83 0
-33 -83 0
36 -34 84 0
-36 -84 0
34 -84 0
84 37 85 0
-84 -85 0
-37 -85 0
85 83 86 0
-85 -86 0
-83 -86 0
-85 -83 87 0
85 -87 0
83 -87 0
59 -22 88 0
-59 -88 0
22 -88 0
88 60 89 0
-88 -89 0
-60 -89 0
89 87 90 0
-89 -90 0
-87 -90 0
90 86 91 0
-90 -91 0
-86 -91 0
-91 72 92 0
91 -92 0
-72 -92 0
92 71 93 0
-92 -93 0
-71 -93 0
93 66 94 0
-93 -94 0
-66 -94 0
94 65 95 0
-94 -95 0
-65 -95 0
48 -46 96 0
-48 -96 0
46 -96 0
96 49 97 0
-96 -97 0
-49 -97 0
97 -62 98 0
-97 -98 0
62 -98 0
-98 -95 99 0
98 -99 0
95 -99 0
99 56 100 0
-99 -100 0
-56 -100 0
-97 62 101 0
97 -101 0
-62 -101 0
-101 95 102 0
101 -102 0
-95 -102 0
102 -56 103 0
-102 -103 0
56 -103 0
103 100 104 0
-103 -104 0
-100 -104 0
54 51 105 0
-54 -105 0
-51 -105 0
16 -8 106 0
-16 -106 0
8 -106 0
-16 8 107 0
16 -107 0
-8 -107 0
107 106 108 0
-107 -108 0
-106 -108 0
108 -105 109 0
-108 -109 0
105 -109 0
-108 105 110 0
108 -110 0
-105 -110 0
110 109 111 0
-110 -111 0
-109 -111 0
111 -104 112 0
-111 -112 0
104 -112 0
-111 104 113 0
111 -113 0
-104 -113 0
113 112 114 0
-113 -114 0
-112 -114 0
114 0
